set Musicians:= FA BL NM MI SG MA;
set Tracks:= 1 2 3 4 5 6 7 8 9 10 11 12 13 14 15 16 17 18 19 20; # based on markdown song list order

# all based on markdown data
param difficultForMusician :
    FA BL NM MI SG MA :=
    1   1  1  1  0  0  0
    2   1  1  1  0  0  1
    3   0  0  0  0  1  0
    4   1  0  0  1  0  1
    5   0  1  1  1  1  0
    6   1  1  1  1  0  1
    7   0  1  0  0  1  1
    8   0  1  0  0  1  1
    9   1  0  0  0  1  0
    10  0  1  1  0  1  0
    11  1  0  0  0  0  0
    12  0  0  0  0  0  1
    13  0  1  0  0  0  1
    14  1  0  0  0  0  0
    15  0  1  1  1  0  0
    16  0  0  1  1  0  1
    17  0  1  0  0  1  0
    18  1  0  1  1  1  0
    19  0  0  1  0  0  1
    20  1  0  1  0  1  0;

param: trackLength popularity :=
1       18.67      61
2       5.83       100
3       4.97       87
4       4.92       55
5       4.83       70
6       5.85       87
7       13.35      58
8       6.73       58
9       5.68       91
10      7.53       71
11      3.32       54
12      4.00       66
13      4.32       40
14      4.40       65
15      4.55       57
16      4.70       86
17      6.40       90
18      6.25       77
19      5.53       87
20      4.72       56;

param maxTracks := 10; # EXACTLY 10 songs
param minMinutes := 60; # AT LEAST 60 minutes
param maxMinutes := 80; # AT MOST 80 minutes
param breakBetweenTracks := 0.5; # 30 seconds



